p cnf 7230 16
5419 -5572 0
-1 -4908 -5369 5575 0
1 -5576 0
-2 -5551 -5573 0
5570 -5572 0
-4238 -5419 5571 0
2 -5574 0
4238 -5570 0
4908 -5576 0
-5575 5576 0
5573 5574 0
-5571 5572 0
5551 -5574 0
5369 -5576 0
-5569 5570 0
5569 -5570 0
